100
100
80
80
79
79
79
77
76
75
74
74
72
72
72
71
70
68
68
67
67
65
64
64
63
63
61
61
60
60
59
59
57
55
54
53
53
52
52
51
51
51
50
49
49
48
47
47
46
46
46
44
44
43
41
41
40
39
39
38
38
38
37
37
36
35
35
35
34
33
33
31
30
28
28
27
27
26
24
24
24
24
22
22
22
21
21
20
20
19
17
17
16
16
16
14
13
13
13
12
11
10
